c WARNING: for repeatability, setting FPU to use double precision
d VARIABLES            62824        
d CONSTRAINTS          268297       
c ============================[ Problem Statistics ]=============================
c |                                                                             |
c |  Number of variables:         62824                                         |
c |  Number of clauses:          268297                                         |
c |  Parse time:                   0.04 s                                       |
c |                                                                             |
c ============================[ Search Statistics ]==============================
c | Conflicts |          ORIGINAL         |          LEARNT          | Progress |
c |           |    Vars  Clauses Literals |    Limit  Clauses Lit/Cl |          |
c ===============================================================================
c |       100 |   50243   232417   566060 |    85219      100     33 | 20.026 % |
c |       250 |   50243   232417   566060 |    93741      250     28 | 20.026 % |
c |       475 |   50243   232417   566060 |   103115      475     75 | 20.026 % |
c |       812 |   50243   232417   566060 |   113427      812     87 | 20.026 % |
c |      1318 |   50243   232417   566060 |   124769     1318    108 | 20.026 % |
c |      2077 |   50243   232417   566060 |   137246     2077    114 | 20.026 % |
c |      3216 |   50243   232417   566060 |   150971     3216    108 | 20.026 % |
c |      4924 |   50243   232417   566060 |   166068     4924    114 | 20.026 % |
c |      7486 |   50243   232417   566060 |   182675     7486    122 | 20.026 % |
c |     11330 |   50243   232417   566060 |   200943    11330    122 | 20.026 % |
c |     17096 |   50243   232417   566060 |   221037    17096    138 | 20.026 % |
c |     25745 |   50243   232417   566060 |   243141    25745    145 | 20.026 % |
c |     38719 |   50243   232417   566060 |   267455    38719    149 | 20.026 % |
c |     58180 |   50243   232417   566060 |   294201    58180    154 | 20.026 % |
c |     87372 |   50243   232417   566060 |   323621    87372    166 | 20.026 % |
c |    131161 |   50243   232417   566060 |   355983   131161    181 | 20.026 % |
c |    196845 |   50243   232417   566060 |   391581   196845    176 | 20.026 % |
c |    295371 |   50243   232417   566060 |   430739   295371    174 | 20.026 % |
c |    443160 |   50243   232417   566060 |   473813   443160    169 | 20.026 % |
c |    664843 |   50243   232417   566060 |   521195   190557    143 | 20.026 % |
c |    997368 |   50243   232417   566060 |   573314   523082    144 | 20.026 % |
c |   1496156 |   50239   232398   566014 |   630646   451352    143 | 20.032 % |
c |   2244338 |   50239   232398   566014 |   693710   580330    149 | 20.032 % |
c |   3366612 |   50239   232398   566014 |   763081   312898    138 | 20.032 % |
c ===============================================================================
c restarts              : 6142
c conflicts             : 3565788        (1988 /sec)
c decisions             : 7442104        (0.00 % random) (4150 /sec)
c propagations          : 3877076368     (2162008 /sec)
c conflict literals     : 535562516      (39.54 % deleted)
d RESTARTS             6142
d FAILURES             3565788      
d NODES                7442104      
d BACKTRACKS           7442104      
d PROPAGATIONS         3877076368   
d NOGOODSIZE           150.19 
d MEMORY               699.00 
d TIME                 1793.28 

s UNKNOWN
